\ This file has been generated by DOcplex
\ ENCODING=ISO-8859-1
\Problem name: Orandom442_12.lp

Minimize
 obj: - 424.000008740980 x0 - 212.000004370490 x1 - 106.000002185245 x2
      - 408.000008740980 x3 - 204.000004370490 x4 - 102.000002185245 x5
      - 424.000008740980 x6 - 212.000004370490 x7 - 106.000002185245 x8
      - 420.000008740980 x9 - 210.000004370490 x10 - 105.000002185245 x11 + [
      240.000004994846 x0^2 + 240.000004994846 x0*x1 + 120.000002497423 x0*x2
      + 480.000009989692 x0*x3 + 240.000004994846 x0*x4 + 120.000002497423 x0*x5
      + 480.000009989692 x0*x6 + 240.000004994846 x0*x7 + 120.000002497423 x0*x8
      + 480.000009989692 x0*x9 + 240.000004994846 x0*x10
      + 120.000002497423 x0*x11 + 60.000001248711 x1^2 + 60.000001248711 x1*x2
      + 240.000004994846 x1*x3 + 120.000002497423 x1*x4 + 60.000001248711 x1*x5
      + 240.000004994846 x1*x6 + 120.000002497423 x1*x7 + 60.000001248711 x1*x8
      + 240.000004994846 x1*x9 + 120.000002497423 x1*x10
      + 60.000001248711 x1*x11 + 15.000000312178 x2^2 + 120.000002497423 x2*x3
      + 60.000001248711 x2*x4 + 30.000000624356 x2*x5 + 120.000002497423 x2*x6
      + 60.000001248711 x2*x7 + 30.000000624356 x2*x8 + 120.000002497423 x2*x9
      + 60.000001248711 x2*x10 + 30.000000624356 x2*x11 + 272.000004994846 x3^2
      + 272.000004994846 x3*x4 + 136.000002497423 x3*x5 + 480.000009989692 x3*x6
      + 240.000004994846 x3*x7 + 120.000002497423 x3*x8 + 480.000009989692 x3*x9
      + 240.000004994846 x3*x10 + 120.000002497423 x3*x11 + 68.000001248711 x4^2
      + 68.000001248711 x4*x5 + 240.000004994846 x4*x6 + 120.000002497423 x4*x7
      + 60.000001248711 x4*x8 + 240.000004994846 x4*x9 + 120.000002497423 x4*x10
      + 60.000001248711 x4*x11 + 17.000000312178 x5^2 + 120.000002497423 x5*x6
      + 60.000001248711 x5*x7 + 30.000000624356 x5*x8 + 120.000002497423 x5*x9
      + 60.000001248711 x5*x10 + 30.000000624356 x5*x11 + 240.000004994846 x6^2
      + 240.000004994846 x6*x7 + 120.000002497423 x6*x8 + 480.000009989692 x6*x9
      + 240.000004994846 x6*x10 + 120.000002497423 x6*x11 + 60.000001248711 x7^2
      + 60.000001248711 x7*x8 + 240.000004994846 x7*x9 + 120.000002497423 x7*x10
      + 60.000001248711 x7*x11 + 15.000000312178 x8^2 + 120.000002497423 x8*x9
      + 60.000001248711 x8*x10 + 30.000000624356 x8*x11 + 336.000004994846 x9^2
      + 336.000004994846 x9*x10 + 168.000002497423 x9*x11
      + 84.000001248711 x10^2 + 84.000001248711 x10*x11 + 21.000000312178 x11^2
      ]/2 + 367.500007648358
Subject To

Bounds
 0 <= x0 <= 1
 0 <= x1 <= 1
 0 <= x2 <= 1
 0 <= x3 <= 1
 0 <= x4 <= 1
 0 <= x5 <= 1
 0 <= x6 <= 1
 0 <= x7 <= 1
 0 <= x8 <= 1
 0 <= x9 <= 1
 0 <= x10 <= 1
 0 <= x11 <= 1

Binaries
 x0 x1 x2 x3 x4 x5 x6 x7 x8 x9 x10 x11
End
